numcars = 200;
numoptions = 5;
numclasses = 25;

numberPerClass = [3, 12, 2, 7, 1, 6, 38, 3, 17, 15, 4, 2, 5, 13, 1, 13, 2, 5, 1, 22, 5, 13, 3, 4, 3];

% optionsRequired = array2d(1..numclasses, 1..numoptions, 
%   [ 0, 0, 0, 0, 1
%     0, 0, 0, 1, 0
%     0, 0, 0, 1, 1
%     0, 0, 1, 0, 0
%     0, 0, 1, 0, 1
%     0, 0, 1, 1, 0
%     0, 1, 0, 0, 0
%     0, 1, 0, 0, 1
%     0, 1, 0, 1, 0
%     0, 1, 1, 0, 0
%     0, 1, 1, 0, 1
%     0, 1, 1, 1, 1
%     1, 0, 0, 0, 1
%     1, 0, 0, 1, 0
%     1, 0, 0, 1, 1
%     1, 0, 1, 0, 0
%     1, 0, 1, 0, 1
%     1, 0, 1, 1, 0
%     1, 0, 1, 1, 1
%     1, 1, 0, 0, 0
%     1, 1, 0, 0, 1
%     1, 1, 0, 1, 0
%     1, 1, 0, 1, 1
%     1, 1, 1, 0, 1
%     1, 1, 1, 1, 0 ]);


optionsRequired = [|0, 0, 0, 0, 1|
                    0, 0, 0, 1, 0|
                    0, 0, 0, 1, 1|
                    0, 0, 1, 0, 0|
                    0, 0, 1, 0, 1|
                    0, 0, 1, 1, 0|
                    0, 1, 0, 0, 0|
                    0, 1, 0, 0, 1|
                    0, 1, 0, 1, 0|
                    0, 1, 1, 0, 0|
                    0, 1, 1, 0, 1|
                    0, 1, 1, 1, 1|
                    1, 0, 0, 0, 1|
                    1, 0, 0, 1, 0|
                    1, 0, 0, 1, 1|
                    1, 0, 1, 0, 0|
                    1, 0, 1, 0, 1|
                    1, 0, 1, 1, 0|
                    1, 0, 1, 1, 1|
                    1, 1, 0, 0, 0|
                    1, 1, 0, 0, 1|
                    1, 1, 0, 1, 0|
                    1, 1, 0, 1, 1|
                    1, 1, 1, 0, 1|
                    1, 1, 1, 1, 0|];


windowSize = [2, 3, 3, 5, 5];
optMax = [1, 2, 1, 2, 1];